; benchmark generated from python API
(set-info :status unknown)
(declare-fun x_months () Int)
(declare-fun x_beta () Int)
(declare-fun y_months () Int)
(declare-fun y_beta () Int)
(assert
 (<= (- 1202) x_months))
(assert
 (>= 1209 x_months))
(assert
 (let ((?x2387 (mod x_months 48)))
 (let ((?x13 ((as const (Array Int Int)) 0)))
 (let ((?x15 (store ?x13 0 31)))
 (let ((?x18 (store ?x15 1 30)))
 (let ((?x20 (store ?x18 2 31)))
 (let ((?x22 (store ?x20 3 30)))
 (let ((?x24 (store ?x22 4 31)))
 (let ((?x26 (store ?x24 5 31)))
 (let ((?x28 (store ?x26 6 30)))
 (let ((?x30 (store ?x28 7 31)))
 (let ((?x32 (store ?x30 8 30)))
 (let ((?x34 (store ?x32 9 31)))
 (let ((?x36 (store ?x34 10 31)))
 (let ((?x39 (store ?x36 11 28)))
 (let ((?x41 (store ?x39 12 31)))
 (let ((?x43 (store ?x41 13 30)))
 (let ((?x45 (store ?x43 14 31)))
 (let ((?x47 (store ?x45 15 30)))
 (let ((?x49 (store ?x47 16 31)))
 (let ((?x51 (store ?x49 17 31)))
 (let ((?x53 (store ?x51 18 30)))
 (let ((?x55 (store ?x53 19 31)))
 (let ((?x57 (store ?x55 20 30)))
 (let ((?x59 (store ?x57 21 31)))
 (let ((?x61 (store ?x59 22 31)))
 (let ((?x63 (store ?x61 23 28)))
 (let ((?x65 (store ?x63 24 31)))
 (let ((?x67 (store ?x65 25 30)))
 (let ((?x69 (store ?x67 26 31)))
 (let ((?x71 (store ?x69 27 30)))
 (let ((?x72 (store ?x71 28 31)))
 (let ((?x74 (store ?x72 29 31)))
 (let ((?x75 (store ?x74 30 30)))
 (let ((?x76 (store ?x75 31 31)))
 (let ((?x78 (store ?x76 32 30)))
 (let ((?x80 (store ?x78 33 31)))
 (let ((?x82 (store ?x80 34 31)))
 (let ((?x84 (store ?x82 35 28)))
 (let ((?x86 (store ?x84 36 31)))
 (let ((?x88 (store ?x86 37 30)))
 (let ((?x90 (store ?x88 38 31)))
 (let ((?x92 (store ?x90 39 30)))
 (let ((?x94 (store ?x92 40 31)))
 (let ((?x96 (store ?x94 41 31)))
 (let ((?x98 (store ?x96 42 30)))
 (let ((?x100 (store ?x98 43 31)))
 (let ((?x102 (store ?x100 44 30)))
 (let ((?x104 (store ?x102 45 31)))
 (let ((?x106 (store ?x104 46 31)))
 (let ((?x108 (store ?x106 47 29)))
 (let ((?x424 (ite (or (= 22802 (+ x_months 24003)) (= 25202 (+ x_months 24003))) 28 (select ?x108 ?x2387))))
 (let (($x2344 (<= 0 x_beta)))
 (and $x2344 (< x_beta ?x424)))))))))))))))))))))))))))))))))))))))))))))))))))))))
(assert
 (<= (- 1202) y_months))
(assert
 (>= 1209 y_months))
(assert
 (let ((?x2468 (mod y_months 48)))
 (let ((?x13 ((as const (Array Int Int)) 0)))
 (let ((?x15 (store ?x13 0 31)))
 (let ((?x18 (store ?x15 1 30)))
 (let ((?x20 (store ?x18 2 31)))
 (let ((?x22 (store ?x20 3 30)))
 (let ((?x24 (store ?x22 4 31)))
 (let ((?x26 (store ?x24 5 31)))
 (let ((?x28 (store ?x26 6 30)))
 (let ((?x30 (store ?x28 7 31)))
 (let ((?x32 (store ?x30 8 30)))
 (let ((?x34 (store ?x32 9 31)))
 (let ((?x36 (store ?x34 10 31)))
 (let ((?x39 (store ?x36 11 28)))
 (let ((?x41 (store ?x39 12 31)))
 (let ((?x43 (store ?x41 13 30)))
 (let ((?x45 (store ?x43 14 31)))
 (let ((?x47 (store ?x45 15 30)))
 (let ((?x49 (store ?x47 16 31)))
 (let ((?x51 (store ?x49 17 31)))
 (let ((?x53 (store ?x51 18 30)))
 (let ((?x55 (store ?x53 19 31)))
 (let ((?x57 (store ?x55 20 30)))
 (let ((?x59 (store ?x57 21 31)))
 (let ((?x61 (store ?x59 22 31)))
 (let ((?x63 (store ?x61 23 28)))
 (let ((?x65 (store ?x63 24 31)))
 (let ((?x67 (store ?x65 25 30)))
 (let ((?x69 (store ?x67 26 31)))
 (let ((?x71 (store ?x69 27 30)))
 (let ((?x72 (store ?x71 28 31)))
 (let ((?x74 (store ?x72 29 31)))
 (let ((?x75 (store ?x74 30 30)))
 (let ((?x76 (store ?x75 31 31)))
 (let ((?x78 (store ?x76 32 30)))
 (let ((?x80 (store ?x78 33 31)))
 (let ((?x82 (store ?x80 34 31)))
 (let ((?x84 (store ?x82 35 28)))
 (let ((?x86 (store ?x84 36 31)))
 (let ((?x88 (store ?x86 37 30)))
 (let ((?x90 (store ?x88 38 31)))
 (let ((?x92 (store ?x90 39 30)))
 (let ((?x94 (store ?x92 40 31)))
 (let ((?x96 (store ?x94 41 31)))
 (let ((?x98 (store ?x96 42 30)))
 (let ((?x100 (store ?x98 43 31)))
 (let ((?x102 (store ?x100 44 30)))
 (let ((?x104 (store ?x102 45 31)))
 (let ((?x106 (store ?x104 46 31)))
 (let ((?x108 (store ?x106 47 29)))
 (let ((?x2413 (select ?x108 ?x2468)))
 (let ((?x2651 (ite (or (= 22802 (+ y_months 24003)) (= 25202 (+ y_months 24003))) 28 ?x2413)))
 (let (($x2543 (<= 0 y_beta)))
 (and $x2543 (< y_beta ?x2651))))))))))))))))))))))))))))))))))))))))))))))))))))))))
(assert
 (and (= x_months (- (+ (* 2020 12) 1) 24003)) (= 30 x_beta)))
(assert
 (and (= y_months (- (+ (* 2019 12) 1) 24003)) (= 30 y_beta)))
(assert
 (let ((?x2569 (+ x_months 1)))
 (let ((?x2519 (mod ?x2569 48)))
 (let ((?x1303 (ite (> 22803 (+ ?x2569 24003)) 1 (ite (<= 25203 (+ ?x2569 24003)) (- 1) 0))))
 (let ((?x13 ((as const (Array Int Int)) 0)))
 (let ((?x15 (store ?x13 0 31)))
 (let ((?x18 (store ?x15 1 30)))
 (let ((?x20 (store ?x18 2 31)))
 (let ((?x22 (store ?x20 3 30)))
 (let ((?x24 (store ?x22 4 31)))
 (let ((?x26 (store ?x24 5 31)))
 (let ((?x28 (store ?x26 6 30)))
 (let ((?x30 (store ?x28 7 31)))
 (let ((?x32 (store ?x30 8 30)))
 (let ((?x34 (store ?x32 9 31)))
 (let ((?x36 (store ?x34 10 31)))
 (let ((?x39 (store ?x36 11 28)))
 (let ((?x41 (store ?x39 12 31)))
 (let ((?x43 (store ?x41 13 30)))
 (let ((?x45 (store ?x43 14 31)))
 (let ((?x47 (store ?x45 15 30)))
 (let ((?x49 (store ?x47 16 31)))
 (let ((?x51 (store ?x49 17 31)))
 (let ((?x53 (store ?x51 18 30)))
 (let ((?x55 (store ?x53 19 31)))
 (let ((?x57 (store ?x55 20 30)))
 (let ((?x59 (store ?x57 21 31)))
 (let ((?x61 (store ?x59 22 31)))
 (let ((?x63 (store ?x61 23 28)))
 (let ((?x65 (store ?x63 24 31)))
 (let ((?x67 (store ?x65 25 30)))
 (let ((?x69 (store ?x67 26 31)))
 (let ((?x71 (store ?x69 27 30)))
 (let ((?x72 (store ?x71 28 31)))
 (let ((?x74 (store ?x72 29 31)))
 (let ((?x75 (store ?x74 30 30)))
 (let ((?x76 (store ?x75 31 31)))
 (let ((?x78 (store ?x76 32 30)))
 (let ((?x80 (store ?x78 33 31)))
 (let ((?x82 (store ?x80 34 31)))
 (let ((?x84 (store ?x82 35 28)))
 (let ((?x86 (store ?x84 36 31)))
 (let ((?x88 (store ?x86 37 30)))
 (let ((?x90 (store ?x88 38 31)))
 (let ((?x92 (store ?x90 39 30)))
 (let ((?x94 (store ?x92 40 31)))
 (let ((?x96 (store ?x94 41 31)))
 (let ((?x98 (store ?x96 42 30)))
 (let ((?x100 (store ?x98 43 31)))
 (let ((?x102 (store ?x100 44 30)))
 (let ((?x104 (store ?x102 45 31)))
 (let ((?x106 (store ?x104 46 31)))
 (let ((?x108 (store ?x106 47 29)))
 (let ((?x2813 (ite (or (= 22802 (+ ?x2569 24003)) (= 25202 (+ ?x2569 24003))) 28 (select ?x108 ?x2519))))
 (let ((?x2199 (- ?x2813 1)))
 (let ((?x114 (store (store (store (store ?x13 0 0) 1 31) 2 61) 3 92)))
 (let ((?x122 (store (store (store (store ?x114 4 122) 5 153) 6 184) 7 214)))
 (let ((?x130 (store (store (store (store ?x122 8 245) 9 275) 10 306) 11 337)))
 (let ((?x138 (store (store (store (store ?x130 12 365) 13 396) 14 426) 15 457)))
 (let ((?x146 (store (store (store (store ?x138 16 487) 17 518) 18 549) 19 579)))
 (let ((?x154 (store (store (store (store ?x146 20 610) 21 640) 22 671) 23 702)))
 (let ((?x162 (store (store (store (store ?x154 24 730) 25 761) 26 791) 27 822)))
 (let ((?x170 (store (store (store (store ?x162 28 852) 29 883) 30 914) 31 944)))
 (let ((?x178 (store (store (store (store ?x170 32 975) 33 1005) 34 1036) 35 1067)))
 (let ((?x186 (store (store (store (store ?x178 36 1095) 37 1126) 38 1156) 39 1187)))
 (let ((?x194 (store (store (store (store ?x186 40 1217) 41 1248) 42 1279) 43 1309)))
 (let ((?x202 (store (store (store (store ?x194 44 1340) 45 1370) 46 1401) 47 1432)))
 (let ((?x1905 (+ (select ?x202 ?x2519) (ite (> 0 x_beta) 0 (ite (> x_beta ?x2199) ?x2199 x_beta)))))
 (let ((?x1252 (+ (+ ?x1905 ?x1303) 0)))
 (let ((?x2863 (+ ?x2569 (* (div ?x1252 1461) 48))))
 (let ((?x2895 (+ (+ ?x2863 (- 1 ?x2519)) 24003)))
 (let ((?x2850 (select ?x202 1)))
 (let ((?x462 (mod ?x1252 1461)))
 (let (($x1751 (>= ?x462 (+ ?x2850 (ite (> 22803 ?x2895) 1 (ite (<= 25203 ?x2895) (- 1) 0))))))
 (let ((?x2856 (ite (> 22803 (+ (+ ?x2863 (- 2 ?x2519)) 24003)) 1 (ite (<= 25203 (+ (+ ?x2863 (- 2 ?x2519)) 24003)) (- 1) 0))))
 (let ((?x2890 (select ?x202 2)))
 (let ((?x1623 (ite (> 22803 (+ (+ ?x2863 (- 3 ?x2519)) 24003)) 1 (ite (<= 25203 (+ (+ ?x2863 (- 3 ?x2519)) 24003)) (- 1) 0))))
 (let ((?x2189 (select ?x202 3)))
 (let ((?x1886 (ite (>= ?x462 (+ ?x2189 ?x1623)) 3 (ite (>= ?x462 (+ ?x2890 ?x2856)) 2 (ite $x1751 1 0)))))
 (let ((?x1497 (ite (> 22803 (+ (+ ?x2863 (- 4 ?x2519)) 24003)) 1 (ite (<= 25203 (+ (+ ?x2863 (- 4 ?x2519)) 24003)) (- 1) 0))))
 (let ((?x1903 (select ?x202 4)))
 (let ((?x2870 (ite (> 22803 (+ (+ ?x2863 (- 5 ?x2519)) 24003)) 1 (ite (<= 25203 (+ (+ ?x2863 (- 5 ?x2519)) 24003)) (- 1) 0))))
 (let ((?x2888 (select ?x202 5)))
 (let ((?x2136 (ite (>= ?x462 (+ ?x2888 ?x2870)) 5 (ite (>= ?x462 (+ ?x1903 ?x1497)) 4 ?x1886))))
 (let ((?x2804 (ite (> 22803 (+ (+ ?x2863 (- 6 ?x2519)) 24003)) 1 (ite (<= 25203 (+ (+ ?x2863 (- 6 ?x2519)) 24003)) (- 1) 0))))
 (let ((?x477 (select ?x202 6)))
 (let ((?x982 (ite (> 22803 (+ (+ ?x2863 (- 7 ?x2519)) 24003)) 1 (ite (<= 25203 (+ (+ ?x2863 (- 7 ?x2519)) 24003)) (- 1) 0))))
 (let ((?x2155 (select ?x202 7)))
 (let ((?x2811 (ite (>= ?x462 (+ ?x2155 ?x982)) 7 (ite (>= ?x462 (+ ?x477 ?x2804)) 6 ?x2136))))
 (let ((?x2549 (ite (> 22803 (+ (+ ?x2863 (- 8 ?x2519)) 24003)) 1 (ite (<= 25203 (+ (+ ?x2863 (- 8 ?x2519)) 24003)) (- 1) 0))))
 (let ((?x429 (select ?x202 8)))
 (let ((?x2981 (ite (> 22803 (+ (+ ?x2863 (- 9 ?x2519)) 24003)) 1 (ite (<= 25203 (+ (+ ?x2863 (- 9 ?x2519)) 24003)) (- 1) 0))))
 (let ((?x2982 (select ?x202 9)))
 (let ((?x2986 (ite (>= ?x462 (+ ?x2982 ?x2981)) 9 (ite (>= ?x462 (+ ?x429 ?x2549)) 8 ?x2811))))
 (let ((?x3031 (ite (> 22803 (+ (+ ?x2863 (- 10 ?x2519)) 24003)) 1 (ite (<= 25203 (+ (+ ?x2863 (- 10 ?x2519)) 24003)) (- 1) 0))))
 (let ((?x3032 (select ?x202 10)))
 (let ((?x372 (ite (> 22803 (+ (+ ?x2863 (- 11 ?x2519)) 24003)) 1 (ite (<= 25203 (+ (+ ?x2863 (- 11 ?x2519)) 24003)) (- 1) 0))))
 (let ((?x1440 (select ?x202 11)))
 (let ((?x1120 (ite (>= ?x462 (+ ?x1440 ?x372)) 11 (ite (>= ?x462 (+ ?x3032 ?x3031)) 10 ?x2986))))
 (let ((?x2796 (ite (> 22803 (+ (+ ?x2863 (- 12 ?x2519)) 24003)) 1 (ite (<= 25203 (+ (+ ?x2863 (- 12 ?x2519)) 24003)) (- 1) 0))))
 (let ((?x1520 (select ?x202 12)))
 (let ((?x1300 (ite (> 22803 (+ (+ ?x2863 (- 13 ?x2519)) 24003)) 1 (ite (<= 25203 (+ (+ ?x2863 (- 13 ?x2519)) 24003)) (- 1) 0))))
 (let ((?x1915 (select ?x202 13)))
 (let ((?x2009 (ite (>= ?x462 (+ ?x1915 ?x1300)) 13 (ite (>= ?x462 (+ ?x1520 ?x2796)) 12 ?x1120))))
 (let ((?x1446 (ite (> 22803 (+ (+ ?x2863 (- 14 ?x2519)) 24003)) 1 (ite (<= 25203 (+ (+ ?x2863 (- 14 ?x2519)) 24003)) (- 1) 0))))
 (let ((?x2088 (select ?x202 14)))
 (let ((?x1474 (ite (> 22803 (+ (+ ?x2863 (- 15 ?x2519)) 24003)) 1 (ite (<= 25203 (+ (+ ?x2863 (- 15 ?x2519)) 24003)) (- 1) 0))))
 (let ((?x1119 (select ?x202 15)))
 (let ((?x2419 (ite (>= ?x462 (+ ?x1119 ?x1474)) 15 (ite (>= ?x462 (+ ?x2088 ?x1446)) 14 ?x2009))))
 (let ((?x567 (ite (> 22803 (+ (+ ?x2863 (- 16 ?x2519)) 24003)) 1 (ite (<= 25203 (+ (+ ?x2863 (- 16 ?x2519)) 24003)) (- 1) 0))))
 (let ((?x1401 (select ?x202 16)))
 (let ((?x1464 (ite (> 22803 (+ (+ ?x2863 (- 17 ?x2519)) 24003)) 1 (ite (<= 25203 (+ (+ ?x2863 (- 17 ?x2519)) 24003)) (- 1) 0))))
 (let ((?x348 (select ?x202 17)))
 (let ((?x2776 (ite (>= ?x462 (+ ?x348 ?x1464)) 17 (ite (>= ?x462 (+ ?x1401 ?x567)) 16 ?x2419))))
 (let ((?x2965 (ite (> 22803 (+ (+ ?x2863 (- 18 ?x2519)) 24003)) 1 (ite (<= 25203 (+ (+ ?x2863 (- 18 ?x2519)) 24003)) (- 1) 0))))
 (let ((?x2785 (select ?x202 18)))
 (let ((?x1648 (ite (> 22803 (+ (+ ?x2863 (- 19 ?x2519)) 24003)) 1 (ite (<= 25203 (+ (+ ?x2863 (- 19 ?x2519)) 24003)) (- 1) 0))))
 (let ((?x2030 (select ?x202 19)))
 (let ((?x1419 (ite (>= ?x462 (+ ?x2030 ?x1648)) 19 (ite (>= ?x462 (+ ?x2785 ?x2965)) 18 ?x2776))))
 (let ((?x1643 (ite (> 22803 (+ (+ ?x2863 (- 20 ?x2519)) 24003)) 1 (ite (<= 25203 (+ (+ ?x2863 (- 20 ?x2519)) 24003)) (- 1) 0))))
 (let ((?x1155 (select ?x202 20)))
 (let ((?x484 (ite (> 22803 (+ (+ ?x2863 (- 21 ?x2519)) 24003)) 1 (ite (<= 25203 (+ (+ ?x2863 (- 21 ?x2519)) 24003)) (- 1) 0))))
 (let ((?x1447 (select ?x202 21)))
 (let ((?x2506 (ite (>= ?x462 (+ ?x1447 ?x484)) 21 (ite (>= ?x462 (+ ?x1155 ?x1643)) 20 ?x1419))))
 (let ((?x2899 (ite (> 22803 (+ (+ ?x2863 (- 22 ?x2519)) 24003)) 1 (ite (<= 25203 (+ (+ ?x2863 (- 22 ?x2519)) 24003)) (- 1) 0))))
 (let ((?x2749 (select ?x202 22)))
 (let ((?x2418 (ite (> 22803 (+ (+ ?x2863 (- 23 ?x2519)) 24003)) 1 (ite (<= 25203 (+ (+ ?x2863 (- 23 ?x2519)) 24003)) (- 1) 0))))
 (let ((?x2356 (select ?x202 23)))
 (let ((?x1869 (ite (>= ?x462 (+ ?x2356 ?x2418)) 23 (ite (>= ?x462 (+ ?x2749 ?x2899)) 22 ?x2506))))
 (let ((?x2284 (ite (> 22803 (+ (+ ?x2863 (- 24 ?x2519)) 24003)) 1 (ite (<= 25203 (+ (+ ?x2863 (- 24 ?x2519)) 24003)) (- 1) 0))))
 (let ((?x495 (select ?x202 24)))
 (let ((?x2314 (ite (> 22803 (+ (+ ?x2863 (- 25 ?x2519)) 24003)) 1 (ite (<= 25203 (+ (+ ?x2863 (- 25 ?x2519)) 24003)) (- 1) 0))))
 (let ((?x2846 (select ?x202 25)))
 (let ((?x2720 (ite (>= ?x462 (+ ?x2846 ?x2314)) 25 (ite (>= ?x462 (+ ?x495 ?x2284)) 24 ?x1869))))
 (let ((?x2483 (ite (> 22803 (+ (+ ?x2863 (- 26 ?x2519)) 24003)) 1 (ite (<= 25203 (+ (+ ?x2863 (- 26 ?x2519)) 24003)) (- 1) 0))))
 (let ((?x986 (select ?x202 26)))
 (let ((?x1901 (ite (> 22803 (+ (+ ?x2863 (- 27 ?x2519)) 24003)) 1 (ite (<= 25203 (+ (+ ?x2863 (- 27 ?x2519)) 24003)) (- 1) 0))))
 (let ((?x533 (select ?x202 27)))
 (let ((?x2172 (ite (>= ?x462 (+ ?x533 ?x1901)) 27 (ite (>= ?x462 (+ ?x986 ?x2483)) 26 ?x2720))))
 (let ((?x2795 (ite (> 22803 (+ (+ ?x2863 (- 28 ?x2519)) 24003)) 1 (ite (<= 25203 (+ (+ ?x2863 (- 28 ?x2519)) 24003)) (- 1) 0))))
 (let ((?x1139 (select ?x202 28)))
 (let ((?x1116 (ite (> 22803 (+ (+ ?x2863 (- 29 ?x2519)) 24003)) 1 (ite (<= 25203 (+ (+ ?x2863 (- 29 ?x2519)) 24003)) (- 1) 0))))
 (let ((?x1425 (select ?x202 29)))
 (let ((?x3021 (ite (>= ?x462 (+ ?x1425 ?x1116)) 29 (ite (>= ?x462 (+ ?x1139 ?x2795)) 28 ?x2172))))
 (let ((?x1985 (ite (> 22803 (+ (+ ?x2863 (- 30 ?x2519)) 24003)) 1 (ite (<= 25203 (+ (+ ?x2863 (- 30 ?x2519)) 24003)) (- 1) 0))))
 (let ((?x2740 (select ?x202 30)))
 (let ((?x522 (ite (> 22803 (+ (+ ?x2863 (- 31 ?x2519)) 24003)) 1 (ite (<= 25203 (+ (+ ?x2863 (- 31 ?x2519)) 24003)) (- 1) 0))))
 (let ((?x2814 (select ?x202 31)))
 (let ((?x2920 (ite (>= ?x462 (+ ?x2814 ?x522)) 31 (ite (>= ?x462 (+ ?x2740 ?x1985)) 30 ?x3021))))
 (let ((?x1488 (ite (> 22803 (+ (+ ?x2863 (- 32 ?x2519)) 24003)) 1 (ite (<= 25203 (+ (+ ?x2863 (- 32 ?x2519)) 24003)) (- 1) 0))))
 (let ((?x1515 (select ?x202 32)))
 (let ((?x1484 (ite (> 22803 (+ (+ ?x2863 (- 33 ?x2519)) 24003)) 1 (ite (<= 25203 (+ (+ ?x2863 (- 33 ?x2519)) 24003)) (- 1) 0))))
 (let ((?x2948 (select ?x202 33)))
 (let ((?x2098 (ite (>= ?x462 (+ ?x2948 ?x1484)) 33 (ite (>= ?x462 (+ ?x1515 ?x1488)) 32 ?x2920))))
 (let ((?x2921 (ite (> 22803 (+ (+ ?x2863 (- 34 ?x2519)) 24003)) 1 (ite (<= 25203 (+ (+ ?x2863 (- 34 ?x2519)) 24003)) (- 1) 0))))
 (let ((?x1537 (select ?x202 34)))
 (let ((?x2942 (ite (> 22803 (+ (+ ?x2863 (- 35 ?x2519)) 24003)) 1 (ite (<= 25203 (+ (+ ?x2863 (- 35 ?x2519)) 24003)) (- 1) 0))))
 (let ((?x2943 (select ?x202 35)))
 (let ((?x2227 (ite (>= ?x462 (+ ?x2943 ?x2942)) 35 (ite (>= ?x462 (+ ?x1537 ?x2921)) 34 ?x2098))))
 (let ((?x2990 (ite (> 22803 (+ (+ ?x2863 (- 36 ?x2519)) 24003)) 1 (ite (<= 25203 (+ (+ ?x2863 (- 36 ?x2519)) 24003)) (- 1) 0))))
 (let ((?x2221 (select ?x202 36)))
 (let ((?x2998 (ite (> 22803 (+ (+ ?x2863 (- 37 ?x2519)) 24003)) 1 (ite (<= 25203 (+ (+ ?x2863 (- 37 ?x2519)) 24003)) (- 1) 0))))
 (let ((?x2613 (select ?x202 37)))
 (let ((?x3028 (ite (>= ?x462 (+ ?x2613 ?x2998)) 37 (ite (>= ?x462 (+ ?x2221 ?x2990)) 36 ?x2227))))
 (let ((?x1852 (ite (> 22803 (+ (+ ?x2863 (- 38 ?x2519)) 24003)) 1 (ite (<= 25203 (+ (+ ?x2863 (- 38 ?x2519)) 24003)) (- 1) 0))))
 (let ((?x2235 (select ?x202 38)))
 (let ((?x2994 (ite (> 22803 (+ (+ ?x2863 (- 39 ?x2519)) 24003)) 1 (ite (<= 25203 (+ (+ ?x2863 (- 39 ?x2519)) 24003)) (- 1) 0))))
 (let ((?x2996 (select ?x202 39)))
 (let ((?x3014 (ite (>= ?x462 (+ ?x2996 ?x2994)) 39 (ite (>= ?x462 (+ ?x2235 ?x1852)) 38 ?x3028))))
 (let ((?x1670 (ite (> 22803 (+ (+ ?x2863 (- 40 ?x2519)) 24003)) 1 (ite (<= 25203 (+ (+ ?x2863 (- 40 ?x2519)) 24003)) (- 1) 0))))
 (let ((?x1009 (select ?x202 40)))
 (let ((?x3007 (ite (> 22803 (+ (+ ?x2863 (- 41 ?x2519)) 24003)) 1 (ite (<= 25203 (+ (+ ?x2863 (- 41 ?x2519)) 24003)) (- 1) 0))))
 (let ((?x3027 (select ?x202 41)))
 (let ((?x2762 (ite (>= ?x462 (+ ?x3027 ?x3007)) 41 (ite (>= ?x462 (+ ?x1009 ?x1670)) 40 ?x3014))))
 (let ((?x1925 (ite (> 22803 (+ (+ ?x2863 (- 42 ?x2519)) 24003)) 1 (ite (<= 25203 (+ (+ ?x2863 (- 42 ?x2519)) 24003)) (- 1) 0))))
 (let ((?x2304 (select ?x202 42)))
 (let ((?x2101 (ite (> 22803 (+ (+ ?x2863 (- 43 ?x2519)) 24003)) 1 (ite (<= 25203 (+ (+ ?x2863 (- 43 ?x2519)) 24003)) (- 1) 0))))
 (let ((?x1142 (select ?x202 43)))
 (let ((?x2250 (ite (>= ?x462 (+ ?x1142 ?x2101)) 43 (ite (>= ?x462 (+ ?x2304 ?x1925)) 42 ?x2762))))
 (let ((?x2917 (ite (> 22803 (+ (+ ?x2863 (- 44 ?x2519)) 24003)) 1 (ite (<= 25203 (+ (+ ?x2863 (- 44 ?x2519)) 24003)) (- 1) 0))))
 (let ((?x1716 (select ?x202 44)))
 (let ((?x2987 (ite (> 22803 (+ (+ ?x2863 (- 45 ?x2519)) 24003)) 1 (ite (<= 25203 (+ (+ ?x2863 (- 45 ?x2519)) 24003)) (- 1) 0))))
 (let ((?x2988 (select ?x202 45)))
 (let ((?x2240 (ite (>= ?x462 (+ ?x2988 ?x2987)) 45 (ite (>= ?x462 (+ ?x1716 ?x2917)) 44 ?x2250))))
 (let ((?x2816 (ite (> 22803 (+ (+ ?x2863 (- 46 ?x2519)) 24003)) 1 (ite (<= 25203 (+ (+ ?x2863 (- 46 ?x2519)) 24003)) (- 1) 0))))
 (let ((?x1722 (select ?x202 46)))
 (let ((?x2242 (ite (> 22803 (+ (+ ?x2863 (- 47 ?x2519)) 24003)) 1 (ite (<= 25203 (+ (+ ?x2863 (- 47 ?x2519)) 24003)) (- 1) 0))))
 (let ((?x2231 (select ?x202 47)))
 (let ((?x2327 (ite (>= ?x462 (+ ?x2231 ?x2242)) 47 (ite (>= ?x462 (+ ?x1722 ?x2816)) 46 ?x2240))))
 (let ((?x2504 (+ ?x2863 (- ?x2327 ?x2519))))
 (let ((?x2827 (+ ?x2504 24003)))
 (let ((?x768 (+ (select ?x202 ?x2327) (ite (> 22803 ?x2827) 1 (ite (<= 25203 ?x2827) (- 1) 0)))))
 (let ((?x408 (- ?x462 ?x768)))
 (let ((?x2756 (ite (or (= 22802 ?x2827) (= 25202 ?x2827)) 28 (select ?x108 ?x2327))))
 (let (($x951 (= 28 (ite (= 1 (ite (>= ?x408 ?x2756) 1 0)) (- ?x408 ?x2756) ?x408))))
 (let (($x891 (= (+ ?x2504 (ite (>= ?x408 ?x2756) 1 0)) (- (+ (* 2020 12) 2) 24003))))
 (and $x891 $x951)))))))))))))))))))))))))))))))))))))))))))))))))))))))))))))))))))))))))))))))))))))))))))))))))))))))))))))))))))))))))))))))))))))))))))))))))))))))))))))))))))))))))))))))))))))))))))))))))))))
(assert
 (let ((?x2470 (+ y_months 1)))
 (let ((?x2462 (mod ?x2470 48)))
 (let ((?x3469 (ite (> 22803 (+ ?x2470 24003)) 1 (ite (<= 25203 (+ ?x2470 24003)) (- 1) 0))))
 (let ((?x13 ((as const (Array Int Int)) 0)))
 (let ((?x15 (store ?x13 0 31)))
 (let ((?x18 (store ?x15 1 30)))
 (let ((?x20 (store ?x18 2 31)))
 (let ((?x22 (store ?x20 3 30)))
 (let ((?x24 (store ?x22 4 31)))
 (let ((?x26 (store ?x24 5 31)))
 (let ((?x28 (store ?x26 6 30)))
 (let ((?x30 (store ?x28 7 31)))
 (let ((?x32 (store ?x30 8 30)))
 (let ((?x34 (store ?x32 9 31)))
 (let ((?x36 (store ?x34 10 31)))
 (let ((?x39 (store ?x36 11 28)))
 (let ((?x41 (store ?x39 12 31)))
 (let ((?x43 (store ?x41 13 30)))
 (let ((?x45 (store ?x43 14 31)))
 (let ((?x47 (store ?x45 15 30)))
 (let ((?x49 (store ?x47 16 31)))
 (let ((?x51 (store ?x49 17 31)))
 (let ((?x53 (store ?x51 18 30)))
 (let ((?x55 (store ?x53 19 31)))
 (let ((?x57 (store ?x55 20 30)))
 (let ((?x59 (store ?x57 21 31)))
 (let ((?x61 (store ?x59 22 31)))
 (let ((?x63 (store ?x61 23 28)))
 (let ((?x65 (store ?x63 24 31)))
 (let ((?x67 (store ?x65 25 30)))
 (let ((?x69 (store ?x67 26 31)))
 (let ((?x71 (store ?x69 27 30)))
 (let ((?x72 (store ?x71 28 31)))
 (let ((?x74 (store ?x72 29 31)))
 (let ((?x75 (store ?x74 30 30)))
 (let ((?x76 (store ?x75 31 31)))
 (let ((?x78 (store ?x76 32 30)))
 (let ((?x80 (store ?x78 33 31)))
 (let ((?x82 (store ?x80 34 31)))
 (let ((?x84 (store ?x82 35 28)))
 (let ((?x86 (store ?x84 36 31)))
 (let ((?x88 (store ?x86 37 30)))
 (let ((?x90 (store ?x88 38 31)))
 (let ((?x92 (store ?x90 39 30)))
 (let ((?x94 (store ?x92 40 31)))
 (let ((?x96 (store ?x94 41 31)))
 (let ((?x98 (store ?x96 42 30)))
 (let ((?x100 (store ?x98 43 31)))
 (let ((?x102 (store ?x100 44 30)))
 (let ((?x104 (store ?x102 45 31)))
 (let ((?x106 (store ?x104 46 31)))
 (let ((?x108 (store ?x106 47 29)))
 (let ((?x4023 (ite (or (= 22802 (+ ?x2470 24003)) (= 25202 (+ ?x2470 24003))) 28 (select ?x108 ?x2462))))
 (let ((?x3673 (- ?x4023 1)))
 (let ((?x114 (store (store (store (store ?x13 0 0) 1 31) 2 61) 3 92)))
 (let ((?x122 (store (store (store (store ?x114 4 122) 5 153) 6 184) 7 214)))
 (let ((?x130 (store (store (store (store ?x122 8 245) 9 275) 10 306) 11 337)))
 (let ((?x138 (store (store (store (store ?x130 12 365) 13 396) 14 426) 15 457)))
 (let ((?x146 (store (store (store (store ?x138 16 487) 17 518) 18 549) 19 579)))
 (let ((?x154 (store (store (store (store ?x146 20 610) 21 640) 22 671) 23 702)))
 (let ((?x162 (store (store (store (store ?x154 24 730) 25 761) 26 791) 27 822)))
 (let ((?x170 (store (store (store (store ?x162 28 852) 29 883) 30 914) 31 944)))
 (let ((?x178 (store (store (store (store ?x170 32 975) 33 1005) 34 1036) 35 1067)))
 (let ((?x186 (store (store (store (store ?x178 36 1095) 37 1126) 38 1156) 39 1187)))
 (let ((?x194 (store (store (store (store ?x186 40 1217) 41 1248) 42 1279) 43 1309)))
 (let ((?x202 (store (store (store (store ?x194 44 1340) 45 1370) 46 1401) 47 1432)))
 (let ((?x2166 (+ (select ?x202 ?x2462) (ite (> 0 y_beta) 0 (ite (> y_beta ?x3673) ?x3673 y_beta)))))
 (let ((?x3473 (+ (+ ?x2166 ?x3469) 0)))
 (let ((?x3498 (+ ?x2470 (* (div ?x3473 1461) 48))))
 (let ((?x3502 (+ (+ ?x3498 (- 1 ?x2462)) 24003)))
 (let ((?x2850 (select ?x202 1)))
 (let ((?x3483 (mod ?x3473 1461)))
 (let (($x3528 (>= ?x3483 (+ ?x2850 (ite (> 22803 ?x3502) 1 (ite (<= 25203 ?x3502) (- 1) 0))))))
 (let ((?x3558 (ite (> 22803 (+ (+ ?x3498 (- 2 ?x2462)) 24003)) 1 (ite (<= 25203 (+ (+ ?x3498 (- 2 ?x2462)) 24003)) (- 1) 0))))
 (let ((?x2890 (select ?x202 2)))
 (let ((?x3602 (ite (> 22803 (+ (+ ?x3498 (- 3 ?x2462)) 24003)) 1 (ite (<= 25203 (+ (+ ?x3498 (- 3 ?x2462)) 24003)) (- 1) 0))))
 (let ((?x2189 (select ?x202 3)))
 (let ((?x3607 (ite (>= ?x3483 (+ ?x2189 ?x3602)) 3 (ite (>= ?x3483 (+ ?x2890 ?x3558)) 2 (ite $x3528 1 0)))))
 (let ((?x3634 (ite (> 22803 (+ (+ ?x3498 (- 4 ?x2462)) 24003)) 1 (ite (<= 25203 (+ (+ ?x3498 (- 4 ?x2462)) 24003)) (- 1) 0))))
 (let ((?x1903 (select ?x202 4)))
 (let ((?x3693 (ite (> 22803 (+ (+ ?x3498 (- 5 ?x2462)) 24003)) 1 (ite (<= 25203 (+ (+ ?x3498 (- 5 ?x2462)) 24003)) (- 1) 0))))
 (let ((?x2888 (select ?x202 5)))
 (let ((?x3682 (ite (>= ?x3483 (+ ?x2888 ?x3693)) 5 (ite (>= ?x3483 (+ ?x1903 ?x3634)) 4 ?x3607))))
 (let ((?x3709 (ite (> 22803 (+ (+ ?x3498 (- 6 ?x2462)) 24003)) 1 (ite (<= 25203 (+ (+ ?x3498 (- 6 ?x2462)) 24003)) (- 1) 0))))
 (let ((?x477 (select ?x202 6)))
 (let ((?x3768 (ite (> 22803 (+ (+ ?x3498 (- 7 ?x2462)) 24003)) 1 (ite (<= 25203 (+ (+ ?x3498 (- 7 ?x2462)) 24003)) (- 1) 0))))
 (let ((?x2155 (select ?x202 7)))
 (let ((?x3757 (ite (>= ?x3483 (+ ?x2155 ?x3768)) 7 (ite (>= ?x3483 (+ ?x477 ?x3709)) 6 ?x3682))))
 (let ((?x3784 (ite (> 22803 (+ (+ ?x3498 (- 8 ?x2462)) 24003)) 1 (ite (<= 25203 (+ (+ ?x3498 (- 8 ?x2462)) 24003)) (- 1) 0))))
 (let ((?x429 (select ?x202 8)))
 (let ((?x3818 (ite (> 22803 (+ (+ ?x3498 (- 9 ?x2462)) 24003)) 1 (ite (<= 25203 (+ (+ ?x3498 (- 9 ?x2462)) 24003)) (- 1) 0))))
 (let ((?x2982 (select ?x202 9)))
 (let ((?x3833 (ite (>= ?x3483 (+ ?x2982 ?x3818)) 9 (ite (>= ?x3483 (+ ?x429 ?x3784)) 8 ?x3757))))
 (let ((?x3861 (ite (> 22803 (+ (+ ?x3498 (- 10 ?x2462)) 24003)) 1 (ite (<= 25203 (+ (+ ?x3498 (- 10 ?x2462)) 24003)) (- 1) 0))))
 (let ((?x3032 (select ?x202 10)))
 (let ((?x3899 (ite (> 22803 (+ (+ ?x3498 (- 11 ?x2462)) 24003)) 1 (ite (<= 25203 (+ (+ ?x3498 (- 11 ?x2462)) 24003)) (- 1) 0))))
 (let ((?x1440 (select ?x202 11)))
 (let ((?x3908 (ite (>= ?x3483 (+ ?x1440 ?x3899)) 11 (ite (>= ?x3483 (+ ?x3032 ?x3861)) 10 ?x3833))))
 (let ((?x3935 (ite (> 22803 (+ (+ ?x3498 (- 12 ?x2462)) 24003)) 1 (ite (<= 25203 (+ (+ ?x3498 (- 12 ?x2462)) 24003)) (- 1) 0))))
 (let ((?x1520 (select ?x202 12)))
 (let ((?x3967 (ite (> 22803 (+ (+ ?x3498 (- 13 ?x2462)) 24003)) 1 (ite (<= 25203 (+ (+ ?x3498 (- 13 ?x2462)) 24003)) (- 1) 0))))
 (let ((?x1915 (select ?x202 13)))
 (let ((?x4003 (ite (>= ?x3483 (+ ?x1915 ?x3967)) 13 (ite (>= ?x3483 (+ ?x1520 ?x3935)) 12 ?x3908))))
 (let ((?x4011 (ite (> 22803 (+ (+ ?x3498 (- 14 ?x2462)) 24003)) 1 (ite (<= 25203 (+ (+ ?x3498 (- 14 ?x2462)) 24003)) (- 1) 0))))
 (let ((?x2088 (select ?x202 14)))
 (let ((?x4048 (ite (> 22803 (+ (+ ?x3498 (- 15 ?x2462)) 24003)) 1 (ite (<= 25203 (+ (+ ?x3498 (- 15 ?x2462)) 24003)) (- 1) 0))))
 (let ((?x1119 (select ?x202 15)))
 (let ((?x4081 (ite (>= ?x3483 (+ ?x1119 ?x4048)) 15 (ite (>= ?x3483 (+ ?x2088 ?x4011)) 14 ?x4003))))
 (let ((?x4100 (ite (> 22803 (+ (+ ?x3498 (- 16 ?x2462)) 24003)) 1 (ite (<= 25203 (+ (+ ?x3498 (- 16 ?x2462)) 24003)) (- 1) 0))))
 (let ((?x1401 (select ?x202 16)))
 (let ((?x4107 (ite (> 22803 (+ (+ ?x3498 (- 17 ?x2462)) 24003)) 1 (ite (<= 25203 (+ (+ ?x3498 (- 17 ?x2462)) 24003)) (- 1) 0))))
 (let ((?x348 (select ?x202 17)))
 (let ((?x4121 (ite (>= ?x3483 (+ ?x348 ?x4107)) 17 (ite (>= ?x3483 (+ ?x1401 ?x4100)) 16 ?x4081))))
 (let ((?x4133 (ite (> 22803 (+ (+ ?x3498 (- 18 ?x2462)) 24003)) 1 (ite (<= 25203 (+ (+ ?x3498 (- 18 ?x2462)) 24003)) (- 1) 0))))
 (let ((?x2785 (select ?x202 18)))
 (let ((?x4141 (ite (> 22803 (+ (+ ?x3498 (- 19 ?x2462)) 24003)) 1 (ite (<= 25203 (+ (+ ?x3498 (- 19 ?x2462)) 24003)) (- 1) 0))))
 (let ((?x2030 (select ?x202 19)))
 (let ((?x4146 (ite (>= ?x3483 (+ ?x2030 ?x4141)) 19 (ite (>= ?x3483 (+ ?x2785 ?x4133)) 18 ?x4121))))
 (let ((?x4168 (ite (> 22803 (+ (+ ?x3498 (- 20 ?x2462)) 24003)) 1 (ite (<= 25203 (+ (+ ?x3498 (- 20 ?x2462)) 24003)) (- 1) 0))))
 (let ((?x1155 (select ?x202 20)))
 (let ((?x531 (ite (> 22803 (+ (+ ?x3498 (- 21 ?x2462)) 24003)) 1 (ite (<= 25203 (+ (+ ?x3498 (- 21 ?x2462)) 24003)) (- 1) 0))))
 (let ((?x1447 (select ?x202 21)))
 (let ((?x357 (ite (>= ?x3483 (+ ?x1447 ?x531)) 21 (ite (>= ?x3483 (+ ?x1155 ?x4168)) 20 ?x4146))))
 (let ((?x1772 (ite (> 22803 (+ (+ ?x3498 (- 22 ?x2462)) 24003)) 1 (ite (<= 25203 (+ (+ ?x3498 (- 22 ?x2462)) 24003)) (- 1) 0))))
 (let ((?x2749 (select ?x202 22)))
 (let ((?x4504 (ite (> 22803 (+ (+ ?x3498 (- 23 ?x2462)) 24003)) 1 (ite (<= 25203 (+ (+ ?x3498 (- 23 ?x2462)) 24003)) (- 1) 0))))
 (let ((?x2356 (select ?x202 23)))
 (let ((?x3232 (ite (>= ?x3483 (+ ?x2356 ?x4504)) 23 (ite (>= ?x3483 (+ ?x2749 ?x1772)) 22 ?x357))))
 (let ((?x1977 (ite (> 22803 (+ (+ ?x3498 (- 24 ?x2462)) 24003)) 1 (ite (<= 25203 (+ (+ ?x3498 (- 24 ?x2462)) 24003)) (- 1) 0))))
 (let ((?x495 (select ?x202 24)))
 (let ((?x3133 (ite (> 22803 (+ (+ ?x3498 (- 25 ?x2462)) 24003)) 1 (ite (<= 25203 (+ (+ ?x3498 (- 25 ?x2462)) 24003)) (- 1) 0))))
 (let ((?x2846 (select ?x202 25)))
 (let ((?x3939 (ite (>= ?x3483 (+ ?x2846 ?x3133)) 25 (ite (>= ?x3483 (+ ?x495 ?x1977)) 24 ?x3232))))
 (let ((?x1826 (ite (> 22803 (+ (+ ?x3498 (- 26 ?x2462)) 24003)) 1 (ite (<= 25203 (+ (+ ?x3498 (- 26 ?x2462)) 24003)) (- 1) 0))))
 (let ((?x986 (select ?x202 26)))
 (let ((?x4320 (ite (> 22803 (+ (+ ?x3498 (- 27 ?x2462)) 24003)) 1 (ite (<= 25203 (+ (+ ?x3498 (- 27 ?x2462)) 24003)) (- 1) 0))))
 (let ((?x533 (select ?x202 27)))
 (let ((?x1590 (ite (>= ?x3483 (+ ?x533 ?x4320)) 27 (ite (>= ?x3483 (+ ?x986 ?x1826)) 26 ?x3939))))
 (let ((?x4632 (ite (> 22803 (+ (+ ?x3498 (- 28 ?x2462)) 24003)) 1 (ite (<= 25203 (+ (+ ?x3498 (- 28 ?x2462)) 24003)) (- 1) 0))))
 (let ((?x1139 (select ?x202 28)))
 (let ((?x4399 (ite (> 22803 (+ (+ ?x3498 (- 29 ?x2462)) 24003)) 1 (ite (<= 25203 (+ (+ ?x3498 (- 29 ?x2462)) 24003)) (- 1) 0))))
 (let ((?x1425 (select ?x202 29)))
 (let ((?x3804 (ite (>= ?x3483 (+ ?x1425 ?x4399)) 29 (ite (>= ?x3483 (+ ?x1139 ?x4632)) 28 ?x1590))))
 (let ((?x3820 (ite (> 22803 (+ (+ ?x3498 (- 30 ?x2462)) 24003)) 1 (ite (<= 25203 (+ (+ ?x3498 (- 30 ?x2462)) 24003)) (- 1) 0))))
 (let ((?x2740 (select ?x202 30)))
 (let ((?x3430 (ite (> 22803 (+ (+ ?x3498 (- 31 ?x2462)) 24003)) 1 (ite (<= 25203 (+ (+ ?x3498 (- 31 ?x2462)) 24003)) (- 1) 0))))
 (let ((?x2814 (select ?x202 31)))
 (let ((?x3729 (ite (>= ?x3483 (+ ?x2814 ?x3430)) 31 (ite (>= ?x3483 (+ ?x2740 ?x3820)) 30 ?x3804))))
 (let ((?x2164 (ite (> 22803 (+ (+ ?x3498 (- 32 ?x2462)) 24003)) 1 (ite (<= 25203 (+ (+ ?x3498 (- 32 ?x2462)) 24003)) (- 1) 0))))
 (let ((?x1515 (select ?x202 32)))
 (let ((?x3641 (ite (> 22803 (+ (+ ?x3498 (- 33 ?x2462)) 24003)) 1 (ite (<= 25203 (+ (+ ?x3498 (- 33 ?x2462)) 24003)) (- 1) 0))))
 (let ((?x2948 (select ?x202 33)))
 (let ((?x366 (ite (>= ?x3483 (+ ?x2948 ?x3641)) 33 (ite (>= ?x3483 (+ ?x1515 ?x2164)) 32 ?x3729))))
 (let ((?x3377 (ite (> 22803 (+ (+ ?x3498 (- 34 ?x2462)) 24003)) 1 (ite (<= 25203 (+ (+ ?x3498 (- 34 ?x2462)) 24003)) (- 1) 0))))
 (let ((?x1537 (select ?x202 34)))
 (let ((?x1109 (ite (> 22803 (+ (+ ?x3498 (- 35 ?x2462)) 24003)) 1 (ite (<= 25203 (+ (+ ?x3498 (- 35 ?x2462)) 24003)) (- 1) 0))))
 (let ((?x2943 (select ?x202 35)))
 (let ((?x4000 (ite (>= ?x3483 (+ ?x2943 ?x1109)) 35 (ite (>= ?x3483 (+ ?x1537 ?x3377)) 34 ?x366))))
 (let ((?x4240 (ite (> 22803 (+ (+ ?x3498 (- 36 ?x2462)) 24003)) 1 (ite (<= 25203 (+ (+ ?x3498 (- 36 ?x2462)) 24003)) (- 1) 0))))
 (let ((?x2221 (select ?x202 36)))
 (let ((?x3776 (ite (> 22803 (+ (+ ?x3498 (- 37 ?x2462)) 24003)) 1 (ite (<= 25203 (+ (+ ?x3498 (- 37 ?x2462)) 24003)) (- 1) 0))))
 (let ((?x2613 (select ?x202 37)))
 (let ((?x3571 (ite (>= ?x3483 (+ ?x2613 ?x3776)) 37 (ite (>= ?x3483 (+ ?x2221 ?x4240)) 36 ?x4000))))
 (let ((?x4354 (ite (> 22803 (+ (+ ?x3498 (- 38 ?x2462)) 24003)) 1 (ite (<= 25203 (+ (+ ?x3498 (- 38 ?x2462)) 24003)) (- 1) 0))))
 (let ((?x2235 (select ?x202 38)))
 (let ((?x3951 (ite (> 22803 (+ (+ ?x3498 (- 39 ?x2462)) 24003)) 1 (ite (<= 25203 (+ (+ ?x3498 (- 39 ?x2462)) 24003)) (- 1) 0))))
 (let ((?x2996 (select ?x202 39)))
 (let ((?x4130 (ite (>= ?x3483 (+ ?x2996 ?x3951)) 39 (ite (>= ?x3483 (+ ?x2235 ?x4354)) 38 ?x3571))))
 (let ((?x4082 (ite (> 22803 (+ (+ ?x3498 (- 40 ?x2462)) 24003)) 1 (ite (<= 25203 (+ (+ ?x3498 (- 40 ?x2462)) 24003)) (- 1) 0))))
 (let ((?x1009 (select ?x202 40)))
 (let ((?x3465 (ite (> 22803 (+ (+ ?x3498 (- 41 ?x2462)) 24003)) 1 (ite (<= 25203 (+ (+ ?x3498 (- 41 ?x2462)) 24003)) (- 1) 0))))
 (let ((?x3027 (select ?x202 41)))
 (let ((?x3517 (ite (>= ?x3483 (+ ?x3027 ?x3465)) 41 (ite (>= ?x3483 (+ ?x1009 ?x4082)) 40 ?x4130))))
 (let ((?x926 (ite (> 22803 (+ (+ ?x3498 (- 42 ?x2462)) 24003)) 1 (ite (<= 25203 (+ (+ ?x3498 (- 42 ?x2462)) 24003)) (- 1) 0))))
 (let ((?x2304 (select ?x202 42)))
 (let ((?x4425 (ite (> 22803 (+ (+ ?x3498 (- 43 ?x2462)) 24003)) 1 (ite (<= 25203 (+ (+ ?x3498 (- 43 ?x2462)) 24003)) (- 1) 0))))
 (let ((?x1142 (select ?x202 43)))
 (let ((?x516 (ite (>= ?x3483 (+ ?x1142 ?x4425)) 43 (ite (>= ?x3483 (+ ?x2304 ?x926)) 42 ?x3517))))
 (let ((?x1858 (ite (> 22803 (+ (+ ?x3498 (- 44 ?x2462)) 24003)) 1 (ite (<= 25203 (+ (+ ?x3498 (- 44 ?x2462)) 24003)) (- 1) 0))))
 (let ((?x1716 (select ?x202 44)))
 (let ((?x2056 (ite (> 22803 (+ (+ ?x3498 (- 45 ?x2462)) 24003)) 1 (ite (<= 25203 (+ (+ ?x3498 (- 45 ?x2462)) 24003)) (- 1) 0))))
 (let ((?x2988 (select ?x202 45)))
 (let ((?x4037 (ite (>= ?x3483 (+ ?x2988 ?x2056)) 45 (ite (>= ?x3483 (+ ?x1716 ?x1858)) 44 ?x516))))
 (let ((?x340 (ite (> 22803 (+ (+ ?x3498 (- 46 ?x2462)) 24003)) 1 (ite (<= 25203 (+ (+ ?x3498 (- 46 ?x2462)) 24003)) (- 1) 0))))
 (let ((?x1722 (select ?x202 46)))
 (let ((?x4506 (ite (> 22803 (+ (+ ?x3498 (- 47 ?x2462)) 24003)) 1 (ite (<= 25203 (+ (+ ?x3498 (- 47 ?x2462)) 24003)) (- 1) 0))))
 (let ((?x2231 (select ?x202 47)))
 (let ((?x1736 (ite (>= ?x3483 (+ ?x2231 ?x4506)) 47 (ite (>= ?x3483 (+ ?x1722 ?x340)) 46 ?x4037))))
 (let ((?x3331 (+ ?x3498 (- ?x1736 ?x2462))))
 (let ((?x3328 (+ ?x3331 24003)))
 (let ((?x2679 (+ (select ?x202 ?x1736) (ite (> 22803 ?x3328) 1 (ite (<= 25203 ?x3328) (- 1) 0)))))
 (let ((?x2678 (- ?x3483 ?x2679)))
 (let ((?x3209 (ite (or (= 22802 ?x3328) (= 25202 ?x3328)) 28 (select ?x108 ?x1736))))
 (let (($x3750 (= 27 (ite (= 1 (ite (>= ?x2678 ?x3209) 1 0)) (- ?x2678 ?x3209) ?x2678))))
 (let (($x3179 (= (+ ?x3331 (ite (>= ?x2678 ?x3209) 1 0)) (- (+ (* 2019 12) 2) 24003))))
 (and $x3179 $x3750)))))))))))))))))))))))))))))))))))))))))))))))))))))))))))))))))))))))))))))))))))))))))))))))))))))))))))))))))))))))))))))))))))))))))))))))))))))))))))))))))))))))))))))))))))))))))))))))))))))
(assert
 (and (= x_months (- (+ (* 2020 12) 1) 24003)) (= 30 x_beta)))
(assert
 (and (= y_months (- (+ (* 2019 12) 1) 24003)) (= 30 y_beta)))
(check-sat)
